nK = 1302;
nT = 6;
nI = 14;
L = 35;
TT = 269;
np = 1;
nc = 3;
b = [49, 28, 55, 29, 20, 25, 46, 55, 48, 30, 27, 56, 37, 24];
d = [127, 48, 94, 74, 61, 41, 100, 107, 97, 132, 65, 144, 148, 90];
m = [1.8, 1, 2.1, 2.1, 1.4, 1, 2.5, 1.8, 1.3, 1.3, 2.1, 2, 2.2, 1];
pt = [0.32, 0.31, 0.23, 0.2, 0.2, 0.21];
st = [18.56, 13.33, 11.27, 8.6, 11.6, 9.66];
arc = {<1, 0, 1, 1, 0, 0, 0, [1, 1, 1, 1, 1, 1]>, <2, 1, 2, 1, 0, 0, 0, [1, 1, 1, 1, 1, 1]>, <3, 2, 3, 1, 0, 0, 0, [1, 1, 1, 1, 1, 1]>, <4, 3, 4, 1, 0, 0, 0, [1, 1, 1, 1, 1, 1]>, <5, 4, 5, 1, 0, 0, 0, [1, 1, 1, 1, 1, 1]>, <6, 5, 6, 1, 0, 0, 0, [1, 1, 1, 1, 1, 1]>, <7, 6, 7, 1, 0, 0, 0, [1, 1, 1, 1, 1, 1]>, <8, 7, 8, 1, 0, 0, 0, [1, 1, 1, 1, 1, 1]>, <9, 8, 9, 1, 0, 0, 0, [1, 1, 1, 1, 1, 1]>, <10, 9, 10, 1, 0, 0, 0, [1, 1, 1, 1, 1, 1]>, <11, 10, 11, 1, 0, 0, 0, [1, 1, 1, 1, 1, 1]>, <12, 11, 12, 1, 0, 0, 0, [1, 1, 1, 1, 1, 1]>, <13, 12, 13, 1, 0, 0, 0, [1, 1, 1, 1, 1, 1]>, <14, 13, 14, 1, 0, 0, 0, [1, 1, 1, 1, 1, 1]>, <15, 14, 15, 1, 0, 0, 0, [1, 1, 1, 1, 1, 1]>, <16, 15, 16, 1, 0, 0, 0, [1, 1, 1, 1, 1, 1]>, <17, 16, 17, 1, 0, 0, 0, [1, 1, 1, 1, 1, 1]>, <18, 17, 18, 1, 0, 0, 0, [1, 1, 1, 1, 1, 1]>, <19, 18, 19, 1, 0, 0, 0, [1, 1, 1, 1, 1, 1]>, <20, 19, 20, 1, 0, 0, 0, [1, 1, 1, 1, 1, 1]>, <21, 20, 21, 1, 0, 0, 0, [1, 1, 1, 1, 1, 1]>, <22, 21, 22, 1, 0, 0, 0, [1, 1, 1, 1, 1, 1]>, <23, 22, 23, 1, 0, 0, 0, [1, 1, 1, 1, 1, 1]>, <24, 23, 24, 1, 0, 0, 0, [1, 1, 1, 1, 1, 1]>, <25, 24, 25, 1, 0, 0, 0, [1, 1, 1, 1, 1, 1]>, <26, 25, 26, 1, 0, 0, 0, [1, 1, 1, 1, 1, 1]>, <27, 26, 27, 1, 0, 0, 0, [1, 1, 1, 1, 1, 1]>, <28, 27, 28, 1, 0, 0, 0, [1, 1, 1, 1, 1, 1]>, <29, 28, 29, 1, 0, 0, 0, [1, 1, 1, 1, 1, 1]>, <30, 29, 30, 1, 0, 0, 0, [1, 1, 1, 1, 1, 1]>, <31, 30, 31, 1, 0, 0, 0, [1, 1, 1, 1, 1, 1]>, <32, 31, 32, 1, 0, 0, 0, [1, 1, 1, 1, 1, 1]>, <33, 32, 33, 1, 0, 0, 0, [1, 1, 1, 1, 1, 1]>, <34, 33, 34, 1, 0, 0, 0, [1, 1, 1, 1, 1, 1]>, <35, 34, 35, 1, 0, 0, 0, [1, 1, 1, 1, 1, 1]>, <36, 2, 17, 15, 1, 0, 1, [0, 0, 0, 0, 1, 1]>, <37, 3, 18, 15, 1, 0, 1, [0, 0, 0, 0, 1, 1]>, <38, 4, 19, 15, 1, 0, 1, [0, 0, 0, 0, 1, 1]>, <39, 5, 20, 15, 1, 0, 1, [0, 0, 0, 0, 1, 1]>, <40, 6, 21, 15, 1, 0, 1, [0, 0, 0, 0, 1, 1]>, <41, 11, 26, 15, 1, 0, 1, [0, 0, 0, 0, 1, 1]>, <42, 12, 27, 15, 1, 0, 1, [0, 0, 0, 0, 1, 1]>, <43, 13, 28, 15, 1, 0, 1, [0, 0, 0, 0, 1, 1]>, <44, 14, 29, 15, 1, 0, 1, [0, 0, 0, 0, 1, 1]>, <45, 15, 30, 15, 1, 0, 1, [0, 0, 0, 0, 1, 1]>, <46, 16, 31, 15, 1, 0, 1, [0, 0, 0, 0, 1, 1]>, <47, 17, 32, 15, 1, 0, 1, [0, 0, 0, 0, 1, 1]>, <48, 18, 33, 15, 1, 0, 1, [0, 0, 0, 0, 1, 1]>, <49, 19, 34, 15, 1, 0, 1, [0, 0, 0, 0, 1, 1]>, <50, 20, 35, 15, 1, 0, 1, [0, 0, 0, 0, 1, 1]>, <51, 3, 17, 14, 2, 0, 0, [0, 0, 0, 0, 1, 1]>, <52, 4, 18, 14, 2, 0, 0, [0, 0, 0, 0, 1, 1]>, <53, 5, 19, 14, 2, 0, 0, [0, 0, 0, 0, 1, 1]>, <54, 6, 20, 14, 2, 0, 0, [0, 0, 0, 0, 1, 1]>, <55, 12, 26, 14, 2, 0, 0, [0, 0, 0, 0, 1, 1]>, <56, 13, 27, 14, 2, 0, 0, [0, 0, 0, 0, 1, 1]>, <57, 14, 28, 14, 2, 0, 0, [0, 0, 0, 0, 1, 1]>, <58, 15, 29, 14, 2, 0, 0, [0, 0, 0, 0, 1, 1]>, <59, 17, 31, 14, 2, 0, 0, [0, 0, 0, 0, 1, 1]>, <60, 18, 32, 14, 2, 0, 0, [0, 0, 0, 0, 1, 1]>, <61, 19, 33, 14, 2, 0, 0, [0, 0, 0, 0, 1, 1]>, <62, 20, 34, 14, 2, 0, 0, [0, 0, 0, 0, 1, 1]>, <63, 21, 35, 14, 2, 0, 0, [0, 0, 0, 0, 1, 1]>, <64, 2, 17, 15, 3, 1, 0, [0, 0, 1, 1, 0, 0]>, <65, 3, 18, 15, 3, 1, 0, [0, 0, 1, 1, 0, 0]>, <66, 4, 19, 15, 3, 1, 0, [0, 0, 1, 1, 0, 0]>, <67, 5, 20, 15, 3, 1, 0, [0, 0, 1, 1, 0, 0]>, <68, 6, 21, 15, 3, 1, 0, [0, 0, 1, 1, 0, 0]>, <69, 11, 26, 15, 3, 1, 0, [0, 0, 1, 1, 0, 0]>, <70, 12, 27, 15, 3, 1, 0, [0, 0, 1, 1, 0, 0]>, <71, 13, 28, 15, 3, 1, 0, [0, 0, 1, 1, 0, 0]>, <72, 14, 29, 15, 3, 1, 0, [0, 0, 1, 1, 0, 0]>, <73, 15, 30, 15, 3, 1, 0, [0, 0, 1, 1, 0, 0]>, <74, 16, 31, 15, 3, 1, 0, [0, 0, 1, 1, 0, 0]>, <75, 17, 32, 15, 3, 1, 0, [0, 0, 1, 1, 0, 0]>, <76, 18, 33, 15, 3, 1, 0, [0, 0, 1, 1, 0, 0]>, <77, 19, 34, 15, 3, 1, 0, [0, 0, 1, 1, 0, 0]>, <78, 20, 35, 15, 3, 1, 0, [0, 0, 1, 1, 0, 0]>, <79, 5, 14, 9, 4, 0, 1, [0, 0, 1, 1, 0, 0]>, <80, 6, 15, 9, 4, 0, 1, [0, 0, 1, 1, 0, 0]>, <81, 14, 23, 9, 4, 0, 1, [0, 0, 1, 1, 0, 0]>, <82, 15, 24, 9, 4, 0, 1, [0, 0, 1, 1, 0, 0]>, <83, 22, 31, 9, 4, 0, 1, [0, 0, 1, 1, 0, 0]>, <84, 23, 32, 9, 4, 0, 1, [0, 0, 1, 1, 0, 0]>, <85, 24, 33, 9, 4, 0, 1, [0, 0, 1, 1, 0, 0]>, <86, 5, 16, 11, 5, 0, 1, [0, 0, 0, 1, 1, 0]>, <87, 6, 17, 11, 5, 0, 1, [0, 0, 0, 1, 1, 0]>, <88, 14, 25, 11, 5, 0, 1, [0, 0, 0, 1, 1, 0]>, <89, 15, 26, 11, 5, 0, 1, [0, 0, 0, 1, 1, 0]>, <90, 20, 31, 11, 5, 0, 1, [0, 0, 0, 1, 1, 0]>, <91, 21, 32, 11, 5, 0, 1, [0, 0, 0, 1, 1, 0]>, <92, 22, 33, 11, 5, 0, 1, [0, 0, 0, 1, 1, 0]>, <93, 23, 34, 11, 5, 0, 1, [0, 0, 0, 1, 1, 0]>, <94, 24, 35, 11, 5, 0, 1, [0, 0, 0, 1, 1, 0]>, <95, 5, 17, 12, 6, 0, 1, [0, 0, 0, 1, 1, 0]>, <96, 6, 18, 12, 6, 0, 1, [0, 0, 0, 1, 1, 0]>, <97, 14, 26, 12, 6, 0, 1, [0, 0, 0, 1, 1, 0]>, <98, 15, 27, 12, 6, 0, 1, [0, 0, 0, 1, 1, 0]>, <99, 19, 31, 12, 6, 0, 1, [0, 0, 0, 1, 1, 0]>, <100, 20, 32, 12, 6, 0, 1, [0, 0, 0, 1, 1, 0]>, <101, 21, 33, 12, 6, 0, 1, [0, 0, 0, 1, 1, 0]>, <102, 22, 34, 12, 6, 0, 1, [0, 0, 0, 1, 1, 0]>, <103, 23, 35, 12, 6, 0, 1, [0, 0, 0, 1, 1, 0]>, <104, 5, 15, 10, 7, 1, 0, [1, 0, 0, 0, 0, 1]>, <105, 6, 16, 10, 7, 1, 0, [1, 0, 0, 0, 0, 1]>, <106, 14, 24, 10, 7, 1, 0, [1, 0, 0, 0, 0, 1]>, <107, 15, 25, 10, 7, 1, 0, [1, 0, 0, 0, 0, 1]>, <108, 21, 31, 10, 7, 1, 0, [1, 0, 0, 0, 0, 1]>, <109, 22, 32, 10, 7, 1, 0, [1, 0, 0, 0, 0, 1]>, <110, 23, 33, 10, 7, 1, 0, [1, 0, 0, 0, 0, 1]>, <111, 24, 34, 10, 7, 1, 0, [1, 0, 0, 0, 0, 1]>, <112, 5, 17, 12, 8, 0, 0, [0, 0, 1, 1, 0, 0]>, <113, 6, 18, 12, 8, 0, 0, [0, 0, 1, 1, 0, 0]>, <114, 14, 26, 12, 8, 0, 0, [0, 0, 1, 1, 0, 0]>, <115, 15, 27, 12, 8, 0, 0, [0, 0, 1, 1, 0, 0]>, <116, 19, 31, 12, 8, 0, 0, [0, 0, 1, 1, 0, 0]>, <117, 20, 32, 12, 8, 0, 0, [0, 0, 1, 1, 0, 0]>, <118, 21, 33, 12, 8, 0, 0, [0, 0, 1, 1, 0, 0]>, <119, 22, 34, 12, 8, 0, 0, [0, 0, 1, 1, 0, 0]>, <120, 23, 35, 12, 8, 0, 0, [0, 0, 1, 1, 0, 0]>, <121, 3, 17, 14, 9, 0, 1, [1, 1, 0, 0, 0, 0]>, <122, 4, 18, 14, 9, 0, 1, [1, 1, 0, 0, 0, 0]>, <123, 5, 19, 14, 9, 0, 1, [1, 1, 0, 0, 0, 0]>, <124, 6, 20, 14, 9, 0, 1, [1, 1, 0, 0, 0, 0]>, <125, 12, 26, 14, 9, 0, 1, [1, 1, 0, 0, 0, 0]>, <126, 13, 27, 14, 9, 0, 1, [1, 1, 0, 0, 0, 0]>, <127, 14, 28, 14, 9, 0, 1, [1, 1, 0, 0, 0, 0]>, <128, 15, 29, 14, 9, 0, 1, [1, 1, 0, 0, 0, 0]>, <129, 17, 31, 14, 9, 0, 1, [1, 1, 0, 0, 0, 0]>, <130, 18, 32, 14, 9, 0, 1, [1, 1, 0, 0, 0, 0]>, <131, 19, 33, 14, 9, 0, 1, [1, 1, 0, 0, 0, 0]>, <132, 20, 34, 14, 9, 0, 1, [1, 1, 0, 0, 0, 0]>, <133, 21, 35, 14, 9, 0, 1, [1, 1, 0, 0, 0, 0]>, <134, 4, 17, 13, 10, 0, 1, [1, 1, 0, 0, 0, 0]>, <135, 5, 18, 13, 10, 0, 1, [1, 1, 0, 0, 0, 0]>, <136, 6, 19, 13, 10, 0, 1, [1, 1, 0, 0, 0, 0]>, <137, 13, 26, 13, 10, 0, 1, [1, 1, 0, 0, 0, 0]>, <138, 14, 27, 13, 10, 0, 1, [1, 1, 0, 0, 0, 0]>, <139, 15, 28, 13, 10, 0, 1, [1, 1, 0, 0, 0, 0]>, <140, 18, 31, 13, 10, 0, 1, [1, 1, 0, 0, 0, 0]>, <141, 19, 32, 13, 10, 0, 1, [1, 1, 0, 0, 0, 0]>, <142, 20, 33, 13, 10, 0, 1, [1, 1, 0, 0, 0, 0]>, <143, 21, 34, 13, 10, 0, 1, [1, 1, 0, 0, 0, 0]>, <144, 22, 35, 13, 10, 0, 1, [1, 1, 0, 0, 0, 0]>, <145, 4, 17, 13, 11, 0, 0, [1, 1, 0, 0, 0, 0]>, <146, 5, 18, 13, 11, 0, 0, [1, 1, 0, 0, 0, 0]>, <147, 6, 19, 13, 11, 0, 0, [1, 1, 0, 0, 0, 0]>, <148, 13, 26, 13, 11, 0, 0, [1, 1, 0, 0, 0, 0]>, <149, 14, 27, 13, 11, 0, 0, [1, 1, 0, 0, 0, 0]>, <150, 15, 28, 13, 11, 0, 0, [1, 1, 0, 0, 0, 0]>, <151, 18, 31, 13, 11, 0, 0, [1, 1, 0, 0, 0, 0]>, <152, 19, 32, 13, 11, 0, 0, [1, 1, 0, 0, 0, 0]>, <153, 20, 33, 13, 11, 0, 0, [1, 1, 0, 0, 0, 0]>, <154, 21, 34, 13, 11, 0, 0, [1, 1, 0, 0, 0, 0]>, <155, 22, 35, 13, 11, 0, 0, [1, 1, 0, 0, 0, 0]>, <156, 2, 17, 15, 12, 0, 1, [0, 0, 0, 0, 1, 1]>, <157, 3, 18, 15, 12, 0, 1, [0, 0, 0, 0, 1, 1]>, <158, 4, 19, 15, 12, 0, 1, [0, 0, 0, 0, 1, 1]>, <159, 5, 20, 15, 12, 0, 1, [0, 0, 0, 0, 1, 1]>, <160, 6, 21, 15, 12, 0, 1, [0, 0, 0, 0, 1, 1]>, <161, 11, 26, 15, 12, 0, 1, [0, 0, 0, 0, 1, 1]>, <162, 12, 27, 15, 12, 0, 1, [0, 0, 0, 0, 1, 1]>, <163, 13, 28, 15, 12, 0, 1, [0, 0, 0, 0, 1, 1]>, <164, 14, 29, 15, 12, 0, 1, [0, 0, 0, 0, 1, 1]>, <165, 15, 30, 15, 12, 0, 1, [0, 0, 0, 0, 1, 1]>, <166, 16, 31, 15, 12, 0, 1, [0, 0, 0, 0, 1, 1]>, <167, 17, 32, 15, 12, 0, 1, [0, 0, 0, 0, 1, 1]>, <168, 18, 33, 15, 12, 0, 1, [0, 0, 0, 0, 1, 1]>, <169, 19, 34, 15, 12, 0, 1, [0, 0, 0, 0, 1, 1]>, <170, 20, 35, 15, 12, 0, 1, [0, 0, 0, 0, 1, 1]>, <171, 5, 14, 9, 13, 1, 0, [0, 0, 0, 0, 1, 1]>, <172, 6, 15, 9, 13, 1, 0, [0, 0, 0, 0, 1, 1]>, <173, 14, 23, 9, 13, 1, 0, [0, 0, 0, 0, 1, 1]>, <174, 15, 24, 9, 13, 1, 0, [0, 0, 0, 0, 1, 1]>, <175, 22, 31, 9, 13, 1, 0, [0, 0, 0, 0, 1, 1]>, <176, 23, 32, 9, 13, 1, 0, [0, 0, 0, 0, 1, 1]>, <177, 24, 33, 9, 13, 1, 0, [0, 0, 0, 0, 1, 1]>, <178, 4, 17, 13, 14, 0, 1, [0, 0, 1, 1, 0, 0]>, <179, 5, 18, 13, 14, 0, 1, [0, 0, 1, 1, 0, 0]>, <180, 6, 19, 13, 14, 0, 1, [0, 0, 1, 1, 0, 0]>, <181, 13, 26, 13, 14, 0, 1, [0, 0, 1, 1, 0, 0]>, <182, 14, 27, 13, 14, 0, 1, [0, 0, 1, 1, 0, 0]>, <183, 15, 28, 13, 14, 0, 1, [0, 0, 1, 1, 0, 0]>, <184, 18, 31, 13, 14, 0, 1, [0, 0, 1, 1, 0, 0]>, <185, 19, 32, 13, 14, 0, 1, [0, 0, 1, 1, 0, 0]>, <186, 20, 33, 13, 14, 0, 1, [0, 0, 1, 1, 0, 0]>, <187, 21, 34, 13, 14, 0, 1, [0, 0, 1, 1, 0, 0]>, <188, 22, 35, 13, 14, 0, 1, [0, 0, 1, 1, 0, 0]>};
